(set-logic QF_S)
(declare-fun var0 () String)
(declare-fun var1 () String)
(declare-fun var2 () String)
(declare-fun var3 () String)
(declare-fun var4 () String)
(declare-fun var5 () String)
(declare-fun var6 () String)
(declare-fun var7 () String)
(declare-fun var8 () String)
(declare-fun var9 () String)
(declare-fun var10 () String)
(declare-fun var11 () String)
(declare-fun var12 () String)
(declare-fun var13 () String)
(declare-fun var14 () String)
(declare-fun var15 () String)
(declare-fun var16 () String)
(declare-fun var17 () String)
(declare-fun var18 () String)
(declare-fun var19 () String)
(declare-fun var20 () String)
(declare-fun var21 () String)
(declare-fun var22 () String)
(declare-fun var23 () String)
(declare-fun var24 () String)
(declare-fun var25 () String)
(declare-fun var26 () String)
(declare-fun var27 () String)
(declare-fun var28 () String)
(declare-fun var29 () String)
(declare-fun var30 () String)
(declare-fun var31 () String)
(declare-fun var32 () String)
(declare-fun var33 () String)
(declare-fun var34 () String)
(declare-fun var35 () String)
(declare-fun var36 () String)
(declare-fun var37 () String)
(declare-fun var38 () String)
(declare-fun var39 () String)
(declare-fun var40 () String)
(declare-fun var41 () String)
(declare-fun var42 () String)
(declare-fun var43 () String)
(declare-fun var44 () String)
(declare-fun var45 () String)
(declare-fun var46 () String)
(declare-fun var47 () String)
(declare-fun var48 () String)
(declare-fun var49 () String)
(declare-fun var50 () String)
(declare-fun var51 () String)
(declare-fun var52 () String)
(declare-fun var53 () String)
(declare-fun var54 () String)
(declare-fun var55 () String)
(declare-fun var56 () String)
(declare-fun var57 () String)
(declare-fun var58 () String)
(declare-fun var59 () String)
(declare-fun var60 () String)
(assert (= var0 (str.++ var1 var2)))
(assert (= var2 (str.++ var3 var4)))
(assert (= var4 (str.++ var5 var6)))
(assert (= var6 (str.++ var7 var8)))
(assert (= var8 (str.++ var9 var10)))
(assert (= var10 (str.++ var11 var12)))
(assert (= var12 (str.++ var13 var14)))
(assert (= var14 (str.++ var15 var16)))
(assert (= var16 (str.++ var17 var18)))
(assert (= var18 (str.++ var19 var20)))
(assert (= var20 (str.++ var21 var22)))
(assert (= var22 (str.++ var23 var24)))
(assert (= var24 (str.++ var25 var26)))
(assert (= var26 (str.++ var27 var28)))
(assert (= var28 (str.++ var29 var30)))
(assert (= var30 (str.++ var31 var32)))
(assert (= var32 (str.++ var33 var34)))
(assert (= var34 (str.++ var35 var36)))
(assert (= var36 (str.++ var37 var38)))
(assert (= var38 (str.++ var39 var40)))
(assert (= var40 (str.++ var41 var42)))
(assert (= var42 (str.++ var43 var44)))
(assert (= var44 (str.++ var45 var46)))
(assert (= var46 (str.++ var47 var48)))
(assert (= var48 (str.++ var49 var50)))
(assert (= var50 (str.++ var51 var52)))
(assert (= var52 (str.++ var53 var54)))
(assert (= var54 (str.++ var55 var56)))
(assert (= var56 (str.++ var57 var58)))
(assert (= var58 (str.++ var59 var60)))
(assert (= var0 "solution"))
(assert (= "t" (str.at var54 888)))
(assert (= "*" (str.at var8 198)))
(assert (= "&" (str.at var24 998)))
(assert (= "D" (str.at var11 934)))
(assert (= "W" (str.at var27 836)))
(assert (= "I" (str.at var6 807)))
(assert (= "M" (str.at var42 266)))
(assert (= "%" (str.at var53 311)))
(assert (= "m" (str.at var49 698)))
(assert (= "p" (str.at var37 458)))
(assert (= "!" (str.at var51 226)))
(assert (= "H" (str.at var53 96)))
(assert (= "K" (str.at var58 818)))
(assert (= ")" (str.at var17 77)))
(assert (= "r" (str.at var24 648)))
(assert (= ">" (str.at var15 878)))
(assert (= "t" (str.at var48 955)))
(assert (= "R" (str.at var17 322)))
(assert (= "." (str.at var42 571)))
(assert (= "R" (str.at var35 657)))
(assert (= "^" (str.at var15 988)))
(assert (= "J" (str.at var49 35)))
(assert (= "r" (str.at var7 348)))
(assert (= "/" (str.at var8 26)))
(assert (= "2" (str.at var56 937)))
(assert (= "Z" (str.at var31 664)))
(assert (= "S" (str.at var45 655)))
(assert (= "p" (str.at var40 891)))
(assert (= "|" (str.at var44 499)))
(assert (= "O" (str.at var13 43)))
(assert (= "\\" (str.at var55 78)))
(assert (= "I" (str.at var3 924)))
(assert (= "1" (str.at var29 778)))
(assert (= "-" (str.at var30 377)))
(assert (= "M" (str.at var10 67)))
(assert (= ":" (str.at var21 785)))
(assert (= "t" (str.at var60 43)))
(assert (= "Z" (str.at var55 593)))
(assert (= "$" (str.at var59 6)))
(assert (= "^" (str.at var10 425)))
(assert (= "g" (str.at var45 577)))
(assert (= "<" (str.at var16 102)))
(assert (= "I" (str.at var29 564)))
(assert (= "8" (str.at var49 177)))
(assert (= "?" (str.at var41 32)))
(assert (= ")" (str.at var35 116)))
(assert (= """" (str.at var3 948)))
(assert (= "?" (str.at var13 289)))
(assert (= "{" (str.at var39 840)))
(assert (= ":" (str.at var27 650)))
(assert (= "^" (str.at var15 25)))
(assert (= "[" (str.at var36 512)))
(assert (= "+" (str.at var38 368)))
(assert (= "F" (str.at var55 363)))
(assert (= "1" (str.at var32 176)))
(assert (= "w" (str.at var21 294)))
(assert (= "+" (str.at var41 58)))
(assert (= """" (str.at var29 128)))
(assert (= "@" (str.at var56 214)))
(assert (= "J" (str.at var42 657)))
(assert (= "r" (str.at var26 448)))
(assert (= "<" (str.at var32 471)))
(assert (= "8" (str.at var46 877)))
(assert (= "|" (str.at var22 573)))
(assert (= "g" (str.at var40 399)))
(assert (= "j" (str.at var41 416)))
(assert (= "<" (str.at var5 307)))
(assert (= "L" (str.at var50 41)))
(assert (= "f" (str.at var28 171)))
(assert (= "v" (str.at var19 629)))
(assert (= "N" (str.at var5 802)))
(assert (= "." (str.at var42 901)))
(assert (= "7" (str.at var40 165)))
(assert (= "3" (str.at var49 810)))
(assert (= "S" (str.at var49 762)))
(assert (= "?" (str.at var23 584)))
(assert (= "]" (str.at var9 316)))
(assert (= "5" (str.at var56 594)))
(assert (= "K" (str.at var7 331)))
(assert (= "^" (str.at var55 695)))
(assert (= "]" (str.at var17 44)))
(assert (= "#" (str.at var13 74)))
(assert (= ")" (str.at var31 895)))
(assert (= "`" (str.at var10 647)))
(assert (= "T" (str.at var36 463)))
(assert (= "K" (str.at var4 623)))
(assert (= "y" (str.at var37 482)))
(assert (= "Q" (str.at var19 960)))
(assert (= "0" (str.at var54 521)))
(assert (= "w" (str.at var10 305)))
(assert (= "N" (str.at var40 154)))
(assert (= "_" (str.at var50 366)))
(assert (= "B" (str.at var47 446)))
(assert (= "7" (str.at var28 68)))
(assert (= "B" (str.at var52 482)))
(assert (= "f" (str.at var49 411)))
(assert (= "O" (str.at var14 565)))
(assert (= "," (str.at var49 127)))
(assert (= "c" (str.at var8 288)))
(assert (= "%" (str.at var54 913)))
(assert (= "k" (str.at var20 7)))
(assert (= "-" (str.at var46 755)))
(assert (= "y" (str.at var46 700)))
(assert (= "l" (str.at var43 456)))
(assert (= "P" (str.at var9 626)))
(assert (= "H" (str.at var28 167)))
(assert (= "o" (str.at var16 377)))
(assert (= "a" (str.at var44 23)))
(assert (= "1" (str.at var2 174)))
(assert (= "f" (str.at var42 841)))
(assert (= "#" (str.at var27 905)))
(assert (= "6" (str.at var52 529)))
(assert (= "C" (str.at var45 528)))
(assert (= "3" (str.at var18 20)))
(assert (= "k" (str.at var35 644)))
(assert (= "l" (str.at var4 460)))
(assert (= ")" (str.at var17 293)))
(assert (= "." (str.at var48 31)))
(assert (= "e" (str.at var25 315)))
(assert (= "=" (str.at var45 412)))
(assert (= "k" (str.at var7 414)))
(assert (= "j" (str.at var1 349)))
(assert (= "/" (str.at var43 413)))
(assert (= "." (str.at var17 908)))
(assert (= "P" (str.at var50 718)))
(assert (= "&" (str.at var22 458)))
(assert (= "m" (str.at var30 995)))
(assert (= "K" (str.at var59 676)))
(assert (= "0" (str.at var60 185)))
(assert (= "3" (str.at var27 382)))
(assert (= "!" (str.at var35 46)))
(assert (= ";" (str.at var10 718)))
(assert (= "O" (str.at var17 91)))
(assert (= """" (str.at var17 374)))
(assert (= "9" (str.at var16 698)))
(assert (= "Q" (str.at var20 824)))
(assert (= "3" (str.at var10 869)))
(assert (= "m" (str.at var24 894)))
(assert (= "a" (str.at var32 873)))
(assert (= "W" (str.at var52 248)))
(assert (= "z" (str.at var22 628)))
(assert (= "D" (str.at var28 621)))
(assert (= "A" (str.at var12 483)))
(assert (= "X" (str.at var25 789)))
(assert (= "Z" (str.at var7 285)))
(assert (= "?" (str.at var7 763)))
(assert (= "!" (str.at var51 779)))
(assert (= "*" (str.at var54 869)))
(assert (= "f" (str.at var2 264)))
(assert (= ")" (str.at var50 550)))
(assert (= "_" (str.at var7 754)))
(assert (= "t" (str.at var33 280)))
(assert (= "?" (str.at var42 943)))
(assert (= "!" (str.at var44 346)))
(assert (= "I" (str.at var36 671)))
(assert (= "R" (str.at var47 27)))
(assert (= "." (str.at var34 312)))
(assert (= "(" (str.at var26 517)))
(assert (= "K" (str.at var27 5)))
(assert (= """" (str.at var27 873)))
(assert (= "C" (str.at var58 572)))
(assert (= "m" (str.at var53 132)))
(assert (= "F" (str.at var42 22)))
(assert (= "o" (str.at var32 863)))
(assert (= "'" (str.at var40 374)))
(assert (= "^" (str.at var3 272)))
(assert (= "r" (str.at var51 808)))
(assert (= "=" (str.at var38 211)))
(assert (= "h" (str.at var30 225)))
(assert (= "#" (str.at var10 142)))
(assert (= "]" (str.at var8 449)))
(assert (= "~" (str.at var38 45)))
(assert (= "C" (str.at var45 270)))
(assert (= "," (str.at var51 477)))
(assert (= "(" (str.at var4 702)))
(assert (= "f" (str.at var21 944)))
(assert (= "O" (str.at var25 197)))
(assert (= "Y" (str.at var39 300)))
(assert (= "j" (str.at var28 9)))
(assert (= "b" (str.at var47 944)))
(assert (= "g" (str.at var16 621)))
(assert (= "|" (str.at var14 463)))
(assert (= "c" (str.at var27 332)))
(assert (= "T" (str.at var25 361)))
(assert (= ")" (str.at var50 405)))
(assert (= "9" (str.at var52 51)))
(assert (= "a" (str.at var54 633)))
(assert (= "5" (str.at var21 89)))
(assert (= "Y" (str.at var3 885)))
(assert (= "b" (str.at var14 637)))
(assert (= "r" (str.at var44 82)))
(assert (= "D" (str.at var60 431)))
(assert (= "n" (str.at var32 686)))
(assert (= "?" (str.at var27 936)))
(assert (= "%" (str.at var24 321)))
(assert (= "k" (str.at var33 858)))
(assert (= "." (str.at var11 346)))
(assert (= "O" (str.at var31 629)))
(assert (= "Z" (str.at var23 339)))
(assert (= "H" (str.at var34 915)))
(assert (= "u" (str.at var14 985)))
(check-sat)